NAME : tsp_249_sol.txt
COMMENT : OR-Tools Guided Local Search
TYPE : TOUR
DIMENSION : 102
COST : 7956
STATUS : ROUTING_SUCCESS
GAP : 0.00% (Reference Solution)
TOUR_SECTION
1
90
19
63
14
71
12
20
60
46
62
74
94
93
33
34
10
72
23
89
79
17
7
95
66
21
45
61
87
58
43
84
5
22
102
99
81
55
11
49
51
40
54
70
59
73
32
3
96
57
82
35
86
16
67
91
44
78
88
31
27
9
68
52
76
29
36
8
83
53
41
48
100
77
64
47
38
18
80
50
85
97
39
4
15
37
26
65
24
101
75
25
98
69
42
13
2
30
92
28
56
6
-1
